c " random instance " 
p edges 200 2193
e 1 14
e 1 18
e 1 22
e 1 23
e 1 25
e 1 48
e 1 57
e 1 60
e 1 67
e 1 89
e 1 93
e 1 102
e 1 107
e 1 110
e 1 115
e 1 152
e 1 158
e 1 159
e 1 167
e 1 170
e 1 184
e 2 24
e 2 27
e 2 30
e 2 32
e 2 35
e 2 42
e 2 43
e 2 58
e 2 71
e 2 72
e 2 83
e 2 84
e 2 91
e 2 93
e 2 96
e 2 98
e 2 99
e 2 113
e 2 120
e 2 131
e 2 137
e 2 180
e 2 183
e 2 187
e 2 197
e 2 200
e 3 5
e 3 12
e 3 34
e 3 37
e 3 40
e 3 60
e 3 61
e 3 62
e 3 81
e 3 86
e 3 96
e 3 104
e 3 120
e 3 121
e 3 153
e 3 183
e 3 188
e 3 189
e 3 192
e 3 199
e 4 8
e 4 9
e 4 26
e 4 43
e 4 52
e 4 54
e 4 58
e 4 93
e 4 95
e 4 96
e 4 117
e 4 161
e 4 162
e 4 164
e 4 170
e 4 192
e 5 10
e 5 11
e 5 16
e 5 17
e 5 20
e 5 34
e 5 40
e 5 49
e 5 59
e 5 69
e 5 78
e 5 81
e 5 83
e 5 84
e 5 97
e 5 118
e 5 121
e 5 126
e 5 136
e 5 144
e 5 145
e 5 146
e 5 150
e 5 151
e 5 159
e 5 163
e 5 174
e 5 177
e 5 190
e 5 200
e 6 9
e 6 23
e 6 25
e 6 33
e 6 34
e 6 54
e 6 71
e 6 78
e 6 80
e 6 81
e 6 91
e 6 103
e 6 109
e 6 117
e 6 120
e 6 121
e 6 129
e 6 139
e 6 142
e 6 157
e 6 174
e 6 195
e 6 197
e 7 17
e 7 20
e 7 21
e 7 34
e 7 51
e 7 69
e 7 75
e 7 94
e 7 111
e 7 113
e 7 131
e 7 140
e 7 143
e 7 147
e 7 154
e 7 159
e 7 163
e 7 164
e 7 178
e 7 183
e 7 184
e 7 199
e 7 200
e 8 12
e 8 13
e 8 16
e 8 23
e 8 27
e 8 39
e 8 61
e 8 68
e 8 76
e 8 81
e 8 86
e 8 91
e 8 117
e 8 140
e 8 143
e 8 153
e 8 158
e 8 166
e 8 178
e 8 179
e 8 186
e 8 188
e 9 13
e 9 18
e 9 29
e 9 32
e 9 68
e 9 69
e 9 73
e 9 75
e 9 86
e 9 87
e 9 98
e 9 120
e 9 134
e 9 145
e 9 148
e 9 149
e 9 161
e 9 171
e 9 194
e 10 12
e 10 13
e 10 29
e 10 38
e 10 40
e 10 73
e 10 82
e 10 86
e 10 91
e 10 104
e 10 106
e 10 108
e 10 110
e 10 130
e 10 135
e 10 175
e 10 180
e 10 187
e 10 188
e 11 19
e 11 32
e 11 40
e 11 63
e 11 64
e 11 74
e 11 75
e 11 79
e 11 84
e 11 91
e 11 98
e 11 100
e 11 102
e 11 106
e 11 112
e 11 123
e 11 126
e 11 144
e 11 173
e 11 187
e 11 192
e 11 195
e 11 196
e 12 35
e 12 37
e 12 48
e 12 55
e 12 66
e 12 78
e 12 82
e 12 91
e 12 97
e 12 127
e 12 135
e 12 145
e 12 159
e 13 40
e 13 42
e 13 51
e 13 57
e 13 67
e 13 75
e 13 102
e 13 114
e 13 118
e 13 135
e 13 142
e 13 183
e 13 185
e 14 29
e 14 41
e 14 53
e 14 62
e 14 83
e 14 86
e 14 91
e 14 117
e 14 133
e 14 138
e 14 139
e 14 142
e 14 153
e 14 169
e 14 189
e 15 17
e 15 29
e 15 41
e 15 59
e 15 61
e 15 64
e 15 71
e 15 77
e 15 87
e 15 89
e 15 112
e 15 125
e 15 126
e 15 132
e 15 136
e 15 162
e 15 170
e 15 174
e 15 181
e 15 186
e 15 191
e 16 22
e 16 34
e 16 42
e 16 47
e 16 55
e 16 57
e 16 72
e 16 77
e 16 80
e 16 95
e 16 102
e 16 110
e 16 114
e 16 127
e 16 130
e 16 147
e 16 159
e 16 173
e 16 184
e 16 189
e 16 195
e 16 198
e 16 199
e 17 29
e 17 34
e 17 42
e 17 43
e 17 59
e 17 70
e 17 91
e 17 104
e 17 105
e 17 122
e 17 140
e 17 157
e 17 161
e 17 177
e 17 184
e 17 198
e 18 51
e 18 61
e 18 73
e 18 75
e 18 77
e 18 78
e 18 83
e 18 112
e 18 127
e 18 143
e 18 172
e 18 184
e 19 34
e 19 38
e 19 41
e 19 48
e 19 55
e 19 80
e 19 87
e 19 95
e 19 97
e 19 98
e 19 104
e 19 111
e 19 112
e 19 115
e 19 120
e 19 140
e 19 159
e 19 160
e 19 166
e 19 176
e 19 178
e 19 196
e 20 31
e 20 52
e 20 54
e 20 59
e 20 71
e 20 78
e 20 86
e 20 88
e 20 89
e 20 104
e 20 114
e 20 115
e 20 119
e 20 159
e 20 188
e 21 22
e 21 23
e 21 26
e 21 28
e 21 36
e 21 39
e 21 44
e 21 47
e 21 48
e 21 50
e 21 86
e 21 87
e 21 89
e 21 90
e 21 97
e 21 98
e 21 106
e 21 111
e 21 117
e 21 129
e 21 131
e 21 140
e 21 158
e 21 173
e 21 176
e 21 184
e 22 27
e 22 31
e 22 34
e 22 46
e 22 62
e 22 68
e 22 78
e 22 80
e 22 83
e 22 95
e 22 99
e 22 106
e 22 114
e 22 124
e 22 131
e 22 133
e 22 142
e 22 148
e 22 152
e 22 154
e 22 157
e 22 172
e 22 177
e 22 187
e 22 191
e 22 197
e 23 30
e 23 38
e 23 59
e 23 60
e 23 75
e 23 89
e 23 100
e 23 114
e 23 117
e 23 123
e 23 125
e 23 134
e 23 146
e 23 157
e 23 158
e 23 173
e 23 187
e 23 189
e 23 199
e 24 31
e 24 33
e 24 38
e 24 49
e 24 69
e 24 71
e 24 73
e 24 74
e 24 95
e 24 102
e 24 161
e 24 164
e 24 196
e 25 33
e 25 46
e 25 48
e 25 50
e 25 67
e 25 69
e 25 71
e 25 74
e 25 86
e 25 90
e 25 104
e 25 106
e 25 111
e 25 121
e 25 140
e 25 141
e 25 142
e 25 151
e 25 162
e 25 163
e 25 171
e 25 172
e 25 186
e 25 194
e 25 198
e 26 44
e 26 54
e 26 55
e 26 56
e 26 57
e 26 60
e 26 61
e 26 65
e 26 67
e 26 81
e 26 88
e 26 97
e 26 101
e 26 104
e 26 107
e 26 121
e 26 130
e 26 132
e 26 135
e 26 148
e 26 150
e 26 164
e 26 168
e 26 175
e 26 182
e 26 199
e 26 200
e 27 31
e 27 35
e 27 40
e 27 41
e 27 42
e 27 54
e 27 60
e 27 62
e 27 72
e 27 75
e 27 78
e 27 105
e 27 124
e 27 131
e 27 139
e 27 143
e 27 167
e 27 174
e 27 181
e 27 192
e 27 196
e 28 40
e 28 52
e 28 56
e 28 67
e 28 76
e 28 88
e 28 106
e 28 109
e 28 125
e 28 126
e 28 131
e 28 138
e 28 140
e 28 141
e 28 147
e 28 149
e 28 150
e 28 157
e 28 162
e 28 164
e 28 172
e 28 183
e 28 191
e 28 199
e 28 200
e 29 61
e 29 70
e 29 77
e 29 78
e 29 84
e 29 96
e 29 102
e 29 103
e 29 113
e 29 125
e 29 126
e 29 129
e 29 131
e 29 151
e 29 173
e 29 176
e 29 190
e 29 195
e 30 34
e 30 50
e 30 53
e 30 75
e 30 88
e 30 89
e 30 97
e 30 98
e 30 106
e 30 112
e 30 115
e 30 122
e 30 133
e 30 144
e 30 147
e 30 167
e 30 168
e 30 175
e 30 179
e 30 189
e 31 32
e 31 33
e 31 36
e 31 57
e 31 69
e 31 88
e 31 100
e 31 111
e 31 120
e 31 171
e 31 175
e 31 184
e 31 192
e 32 33
e 32 45
e 32 69
e 32 79
e 32 80
e 32 110
e 32 118
e 32 126
e 32 132
e 32 136
e 32 141
e 32 151
e 32 165
e 32 169
e 32 173
e 32 188
e 33 43
e 33 46
e 33 97
e 33 98
e 33 105
e 33 121
e 33 134
e 33 135
e 33 139
e 33 148
e 33 151
e 33 158
e 33 161
e 33 163
e 33 184
e 33 198
e 34 36
e 34 39
e 34 42
e 34 46
e 34 53
e 34 71
e 34 78
e 34 84
e 34 95
e 34 102
e 34 105
e 34 124
e 34 133
e 34 134
e 34 149
e 34 169
e 34 195
e 34 196
e 34 198
e 35 41
e 35 47
e 35 60
e 35 65
e 35 93
e 35 100
e 35 102
e 35 110
e 35 135
e 35 158
e 35 182
e 35 193
e 36 44
e 36 45
e 36 57
e 36 75
e 36 85
e 36 114
e 36 119
e 36 140
e 36 146
e 36 149
e 36 151
e 36 157
e 36 159
e 36 184
e 36 188
e 36 190
e 37 47
e 37 64
e 37 67
e 37 81
e 37 124
e 37 134
e 37 144
e 37 159
e 37 162
e 37 168
e 37 178
e 37 187
e 37 193
e 38 45
e 38 53
e 38 60
e 38 77
e 38 88
e 38 128
e 38 135
e 38 178
e 38 183
e 38 194
e 39 44
e 39 48
e 39 64
e 39 74
e 39 75
e 39 82
e 39 85
e 39 88
e 39 92
e 39 105
e 39 109
e 39 113
e 39 143
e 39 167
e 39 174
e 39 177
e 39 192
e 39 193
e 39 197
e 40 45
e 40 56
e 40 58
e 40 70
e 40 73
e 40 79
e 40 93
e 40 94
e 40 98
e 40 106
e 40 116
e 40 118
e 40 124
e 40 143
e 40 148
e 40 154
e 40 157
e 40 158
e 40 164
e 40 178
e 40 192
e 41 45
e 41 46
e 41 51
e 41 57
e 41 64
e 41 81
e 41 89
e 41 94
e 41 100
e 41 102
e 41 103
e 41 111
e 41 139
e 41 143
e 41 144
e 41 167
e 41 193
e 42 43
e 42 45
e 42 58
e 42 69
e 42 86
e 42 88
e 42 94
e 42 109
e 42 117
e 42 125
e 42 126
e 42 137
e 42 138
e 42 141
e 42 149
e 42 150
e 42 155
e 42 158
e 42 163
e 42 166
e 42 173
e 42 179
e 42 189
e 42 191
e 42 195
e 42 199
e 43 53
e 43 64
e 43 73
e 43 76
e 43 90
e 43 102
e 43 105
e 43 107
e 43 125
e 43 129
e 43 130
e 43 134
e 43 142
e 43 178
e 43 183
e 44 70
e 44 73
e 44 81
e 44 101
e 44 117
e 44 121
e 44 145
e 44 157
e 44 166
e 44 172
e 44 183
e 44 193
e 45 56
e 45 62
e 45 67
e 45 70
e 45 78
e 45 95
e 45 102
e 45 112
e 45 119
e 45 128
e 45 131
e 45 132
e 45 157
e 45 172
e 45 181
e 46 51
e 46 52
e 46 81
e 46 85
e 46 92
e 46 105
e 46 112
e 46 114
e 46 125
e 46 131
e 46 155
e 46 157
e 46 180
e 46 187
e 46 192
e 46 196
e 46 197
e 47 53
e 47 55
e 47 76
e 47 97
e 47 100
e 47 107
e 47 116
e 47 119
e 47 122
e 47 127
e 47 132
e 47 178
e 47 184
e 47 196
e 48 64
e 48 68
e 48 92
e 48 93
e 48 101
e 48 112
e 48 113
e 48 116
e 48 141
e 48 147
e 48 169
e 48 190
e 49 63
e 49 67
e 49 89
e 49 102
e 49 126
e 49 136
e 49 154
e 49 159
e 49 161
e 49 163
e 49 166
e 49 181
e 49 183
e 49 187
e 49 191
e 50 83
e 50 92
e 50 105
e 50 129
e 50 136
e 50 145
e 50 147
e 50 148
e 50 151
e 50 160
e 50 176
e 50 182
e 50 188
e 50 192
e 50 196
e 50 199
e 51 54
e 51 55
e 51 65
e 51 94
e 51 108
e 51 132
e 51 143
e 51 145
e 51 146
e 51 166
e 51 170
e 51 195
e 52 54
e 52 57
e 52 58
e 52 62
e 52 66
e 52 70
e 52 73
e 52 86
e 52 93
e 52 100
e 52 101
e 52 103
e 52 106
e 52 109
e 52 115
e 52 135
e 52 141
e 52 142
e 52 144
e 52 145
e 52 148
e 52 151
e 52 153
e 52 154
e 52 157
e 52 166
e 52 168
e 52 170
e 52 175
e 52 177
e 52 180
e 52 187
e 53 55
e 53 65
e 53 72
e 53 75
e 53 76
e 53 79
e 53 92
e 53 102
e 53 136
e 53 138
e 53 143
e 53 162
e 53 166
e 53 178
e 53 183
e 53 187
e 54 63
e 54 65
e 54 79
e 54 83
e 54 84
e 54 90
e 54 133
e 54 135
e 54 150
e 54 153
e 54 164
e 54 166
e 54 186
e 54 189
e 54 195
e 54 197
e 55 56
e 55 62
e 55 85
e 55 88
e 55 104
e 55 109
e 55 115
e 55 136
e 55 145
e 55 156
e 55 158
e 55 161
e 55 200
e 56 57
e 56 65
e 56 76
e 56 93
e 56 103
e 56 136
e 56 152
e 56 154
e 56 158
e 56 173
e 56 192
e 56 199
e 57 67
e 57 69
e 57 74
e 57 77
e 57 81
e 57 89
e 57 98
e 57 148
e 57 155
e 57 163
e 57 200
e 58 61
e 58 66
e 58 78
e 58 93
e 58 96
e 58 109
e 58 111
e 58 125
e 58 127
e 58 128
e 58 136
e 58 166
e 58 170
e 58 173
e 58 179
e 58 192
e 58 195
e 58 198
e 59 67
e 59 68
e 59 72
e 59 74
e 59 80
e 59 82
e 59 85
e 59 88
e 59 92
e 59 97
e 59 113
e 59 115
e 59 119
e 59 145
e 59 148
e 59 154
e 59 169
e 59 170
e 59 172
e 59 174
e 59 176
e 59 181
e 59 183
e 59 184
e 60 83
e 60 129
e 60 155
e 60 159
e 60 167
e 60 181
e 60 184
e 60 195
e 61 66
e 61 71
e 61 78
e 61 81
e 61 99
e 61 102
e 61 109
e 61 124
e 61 152
e 61 154
e 61 156
e 61 160
e 62 70
e 62 78
e 62 83
e 62 98
e 62 101
e 62 102
e 62 146
e 62 147
e 62 159
e 62 162
e 62 171
e 62 172
e 62 178
e 62 185
e 62 187
e 62 195
e 63 87
e 63 92
e 63 115
e 63 148
e 63 160
e 63 161
e 63 162
e 63 163
e 63 167
e 63 170
e 63 176
e 63 180
e 63 200
e 64 79
e 64 80
e 64 86
e 64 97
e 64 107
e 64 122
e 64 124
e 64 145
e 64 164
e 64 168
e 64 177
e 64 200
e 65 71
e 65 73
e 65 94
e 65 113
e 65 139
e 65 152
e 65 153
e 65 168
e 65 186
e 65 200
e 66 76
e 66 85
e 66 111
e 66 129
e 66 130
e 66 139
e 66 147
e 66 152
e 66 157
e 66 159
e 66 166
e 66 168
e 66 172
e 66 183
e 66 190
e 67 69
e 67 77
e 67 79
e 67 114
e 67 115
e 67 116
e 67 138
e 67 148
e 67 157
e 67 163
e 67 180
e 67 190
e 68 83
e 68 85
e 68 90
e 68 93
e 68 101
e 68 104
e 68 106
e 68 114
e 68 143
e 68 151
e 68 152
e 68 170
e 68 172
e 68 176
e 68 188
e 68 195
e 69 77
e 69 85
e 69 102
e 69 113
e 69 114
e 69 118
e 69 119
e 69 127
e 69 132
e 69 146
e 69 167
e 69 182
e 69 183
e 69 189
e 70 73
e 70 79
e 70 83
e 70 87
e 70 91
e 70 101
e 70 105
e 70 107
e 70 117
e 70 137
e 70 139
e 70 154
e 70 159
e 70 166
e 70 169
e 70 183
e 71 75
e 71 79
e 71 85
e 71 93
e 71 110
e 71 130
e 71 134
e 71 136
e 71 138
e 71 144
e 71 148
e 71 159
e 71 170
e 71 186
e 71 190
e 71 193
e 72 93
e 72 96
e 72 103
e 72 121
e 72 130
e 72 133
e 72 139
e 72 153
e 72 157
e 72 173
e 72 180
e 72 192
e 72 199
e 73 75
e 73 81
e 73 101
e 73 107
e 73 135
e 73 140
e 73 144
e 73 151
e 73 152
e 73 154
e 73 162
e 73 178
e 73 179
e 73 180
e 73 199
e 74 76
e 74 83
e 74 85
e 74 98
e 74 103
e 74 111
e 74 116
e 74 117
e 74 119
e 74 123
e 74 126
e 74 138
e 74 141
e 74 149
e 74 169
e 74 182
e 74 196
e 75 78
e 75 94
e 75 113
e 75 121
e 75 125
e 75 130
e 75 134
e 75 135
e 75 148
e 75 177
e 75 178
e 75 182
e 75 192
e 76 103
e 76 118
e 76 120
e 76 126
e 76 138
e 76 142
e 76 147
e 76 149
e 76 165
e 76 171
e 76 186
e 76 189
e 76 199
e 77 86
e 77 100
e 77 102
e 77 105
e 77 106
e 77 108
e 77 137
e 77 175
e 77 184
e 77 185
e 77 194
e 77 196
e 77 198
e 78 87
e 78 97
e 78 110
e 78 119
e 78 122
e 78 129
e 78 134
e 78 140
e 78 150
e 78 177
e 78 179
e 78 181
e 78 198
e 79 92
e 79 98
e 79 100
e 79 104
e 79 113
e 79 118
e 79 127
e 79 148
e 79 170
e 79 180
e 79 182
e 79 183
e 79 190
e 79 198
e 80 87
e 80 91
e 80 100
e 80 125
e 80 130
e 80 134
e 80 153
e 80 160
e 80 165
e 80 170
e 80 183
e 80 190
e 81 86
e 81 107
e 81 111
e 81 122
e 81 128
e 81 130
e 81 137
e 81 138
e 81 141
e 81 171
e 81 178
e 81 183
e 81 189
e 81 193
e 81 196
e 82 104
e 82 110
e 82 111
e 82 134
e 82 144
e 82 163
e 82 166
e 82 169
e 82 176
e 82 180
e 83 96
e 83 102
e 83 108
e 83 111
e 83 129
e 83 146
e 83 157
e 83 178
e 83 190
e 84 91
e 84 93
e 84 106
e 84 115
e 84 116
e 84 139
e 84 168
e 84 176
e 84 177
e 84 179
e 85 87
e 85 118
e 85 121
e 85 124
e 85 134
e 85 140
e 85 144
e 85 145
e 85 150
e 85 158
e 85 161
e 85 162
e 85 167
e 85 169
e 85 173
e 85 200
e 86 108
e 86 113
e 86 117
e 86 121
e 86 126
e 86 129
e 86 148
e 86 153
e 86 157
e 86 177
e 86 184
e 86 190
e 86 193
e 87 94
e 87 101
e 87 109
e 87 111
e 87 124
e 87 136
e 87 159
e 87 174
e 87 178
e 87 188
e 88 103
e 88 105
e 88 127
e 88 139
e 88 140
e 88 142
e 88 149
e 88 153
e 88 168
e 88 170
e 88 173
e 89 95
e 89 111
e 89 113
e 89 115
e 89 120
e 89 134
e 89 136
e 89 137
e 89 150
e 89 158
e 89 160
e 89 161
e 89 163
e 89 181
e 89 183
e 89 184
e 89 185
e 89 187
e 89 192
e 90 91
e 90 98
e 90 126
e 90 134
e 90 138
e 90 141
e 90 152
e 90 153
e 90 157
e 90 179
e 90 187
e 90 189
e 90 191
e 90 192
e 90 194
e 90 199
e 91 101
e 91 103
e 91 120
e 91 125
e 91 138
e 91 141
e 91 146
e 91 147
e 91 148
e 91 149
e 91 154
e 91 161
e 91 163
e 91 184
e 91 188
e 91 200
e 92 104
e 92 112
e 92 125
e 92 136
e 92 139
e 92 145
e 92 149
e 92 152
e 92 156
e 92 163
e 92 171
e 92 173
e 92 174
e 92 176
e 92 187
e 92 190
e 93 95
e 93 104
e 93 123
e 93 125
e 93 136
e 93 138
e 93 145
e 93 146
e 93 147
e 93 148
e 93 153
e 93 154
e 93 158
e 93 163
e 93 166
e 93 167
e 93 183
e 93 190
e 94 102
e 94 105
e 94 114
e 94 119
e 94 130
e 94 132
e 94 135
e 94 143
e 94 145
e 94 146
e 94 161
e 94 164
e 94 165
e 94 173
e 94 176
e 94 179
e 94 183
e 94 186
e 94 199
e 95 126
e 95 165
e 95 171
e 95 179
e 95 181
e 95 187
e 95 194
e 95 196
e 96 99
e 96 115
e 96 121
e 96 132
e 96 136
e 96 140
e 96 141
e 96 144
e 96 149
e 96 174
e 96 175
e 96 179
e 96 184
e 96 193
e 97 106
e 97 108
e 97 124
e 97 126
e 97 128
e 97 129
e 97 133
e 97 136
e 97 140
e 97 153
e 97 155
e 97 174
e 97 179
e 97 189
e 97 192
e 97 197
e 97 198
e 98 101
e 98 112
e 98 113
e 98 116
e 98 152
e 98 156
e 98 163
e 98 170
e 98 173
e 98 184
e 99 111
e 99 125
e 99 129
e 99 137
e 99 145
e 99 146
e 99 160
e 99 162
e 99 165
e 99 166
e 99 173
e 99 183
e 99 186
e 99 187
e 99 197
e 99 198
e 100 106
e 100 115
e 100 116
e 100 145
e 100 148
e 100 149
e 100 180
e 100 184
e 101 123
e 101 138
e 101 147
e 101 165
e 101 166
e 101 176
e 102 105
e 102 108
e 102 111
e 102 114
e 102 132
e 102 135
e 102 142
e 102 144
e 102 147
e 102 152
e 102 158
e 102 159
e 102 168
e 102 171
e 102 172
e 102 199
e 102 200
e 103 104
e 103 107
e 103 145
e 103 146
e 103 149
e 103 152
e 103 166
e 103 191
e 103 192
e 103 196
e 104 110
e 104 119
e 104 120
e 104 129
e 104 178
e 104 195
e 104 196
e 104 198
e 105 140
e 105 153
e 105 163
e 105 171
e 105 182
e 105 183
e 105 191
e 105 197
e 106 107
e 106 117
e 106 131
e 106 137
e 106 142
e 106 143
e 106 144
e 106 147
e 106 153
e 106 156
e 106 165
e 106 167
e 106 172
e 106 174
e 106 184
e 106 194
e 107 111
e 107 125
e 107 160
e 107 170
e 107 175
e 107 179
e 107 186
e 108 120
e 108 124
e 108 127
e 108 140
e 108 141
e 108 149
e 108 153
e 108 156
e 108 161
e 108 168
e 108 170
e 108 189
e 108 198
e 109 110
e 109 113
e 109 114
e 109 127
e 109 132
e 109 137
e 109 140
e 109 156
e 109 165
e 109 181
e 109 198
e 110 134
e 110 154
e 110 163
e 110 192
e 110 197
e 111 119
e 111 148
e 111 162
e 111 164
e 111 168
e 111 170
e 111 175
e 111 182
e 111 184
e 111 187
e 112 118
e 112 125
e 112 126
e 112 128
e 112 132
e 112 135
e 112 136
e 112 138
e 112 152
e 112 156
e 112 186
e 112 198
e 113 119
e 113 134
e 113 137
e 113 148
e 113 159
e 113 164
e 113 169
e 113 179
e 113 195
e 114 119
e 114 124
e 114 131
e 114 133
e 114 137
e 114 141
e 114 144
e 114 147
e 114 168
e 114 169
e 114 174
e 114 186
e 114 192
e 114 195
e 114 197
e 115 124
e 115 134
e 115 138
e 115 180
e 116 117
e 116 127
e 116 131
e 116 151
e 116 153
e 116 154
e 116 164
e 116 186
e 117 124
e 117 140
e 117 156
e 117 165
e 117 183
e 117 190
e 118 133
e 118 134
e 118 139
e 118 142
e 118 160
e 118 163
e 118 173
e 118 180
e 118 186
e 118 195
e 119 122
e 119 131
e 119 143
e 119 145
e 119 147
e 119 168
e 119 172
e 119 178
e 119 184
e 119 194
e 120 127
e 120 137
e 120 139
e 120 144
e 120 148
e 120 151
e 120 159
e 120 162
e 120 173
e 120 188
e 120 190
e 121 125
e 121 135
e 121 141
e 121 143
e 121 154
e 121 158
e 121 160
e 121 169
e 121 181
e 121 182
e 121 187
e 121 190
e 122 128
e 122 142
e 122 144
e 122 153
e 122 159
e 122 165
e 122 169
e 122 187
e 122 191
e 122 196
e 123 145
e 123 159
e 123 168
e 123 172
e 123 174
e 123 176
e 123 178
e 123 186
e 123 187
e 123 188
e 124 127
e 124 131
e 124 151
e 124 158
e 124 171
e 124 173
e 124 181
e 124 188
e 124 198
e 125 128
e 125 159
e 125 173
e 125 177
e 125 182
e 125 185
e 125 195
e 126 129
e 126 144
e 126 163
e 126 169
e 126 176
e 126 179
e 127 142
e 127 149
e 127 150
e 127 153
e 127 154
e 127 161
e 127 169
e 127 174
e 127 186
e 127 200
e 128 141
e 128 154
e 128 163
e 128 171
e 128 172
e 128 198
e 129 132
e 129 136
e 129 153
e 129 155
e 129 165
e 129 168
e 129 173
e 129 183
e 129 189
e 129 199
e 130 131
e 130 135
e 130 142
e 130 149
e 130 156
e 130 164
e 130 166
e 130 178
e 131 132
e 131 138
e 131 139
e 131 140
e 131 142
e 131 146
e 131 149
e 131 167
e 131 170
e 131 171
e 131 184
e 131 193
e 131 196
e 131 199
e 132 136
e 132 145
e 132 153
e 132 156
e 132 160
e 132 161
e 132 168
e 132 177
e 132 190
e 133 137
e 133 151
e 133 157
e 133 177
e 133 182
e 133 184
e 133 192
e 133 194
e 133 199
e 134 136
e 134 140
e 134 141
e 134 145
e 134 156
e 134 159
e 134 161
e 134 166
e 134 168
e 134 192
e 135 156
e 135 157
e 135 161
e 135 166
e 135 175
e 135 176
e 135 194
e 135 198
e 136 154
e 136 160
e 136 169
e 136 170
e 136 197
e 137 139
e 137 153
e 137 159
e 137 165
e 137 179
e 137 181
e 137 185
e 137 186
e 137 189
e 137 191
e 137 198
e 138 139
e 138 140
e 138 144
e 138 151
e 138 161
e 138 172
e 138 180
e 138 187
e 139 150
e 139 154
e 139 163
e 139 167
e 139 170
e 139 173
e 139 176
e 139 190
e 139 196
e 139 199
e 140 142
e 140 146
e 140 150
e 140 152
e 140 176
e 140 186
e 141 142
e 141 147
e 141 151
e 141 159
e 141 169
e 141 171
e 142 151
e 142 155
e 142 157
e 142 176
e 142 177
e 143 151
e 143 154
e 143 161
e 143 171
e 143 178
e 143 185
e 144 150
e 144 151
e 144 153
e 144 156
e 144 161
e 144 171
e 144 177
e 144 186
e 144 195
e 145 149
e 145 156
e 145 193
e 146 157
e 146 161
e 146 183
e 146 184
e 146 192
e 146 199
e 146 200
e 147 157
e 147 196
e 148 193
e 148 197
e 149 157
e 149 163
e 149 173
e 149 185
e 149 189
e 150 171
e 150 172
e 150 176
e 150 189
e 150 192
e 151 154
e 151 156
e 151 179
e 151 186
e 151 190
e 151 197
e 152 153
e 152 169
e 152 186
e 152 192
e 152 198
e 153 154
e 153 155
e 153 157
e 153 161
e 153 162
e 153 186
e 153 187
e 153 198
e 154 157
e 154 159
e 154 175
e 154 176
e 154 184
e 154 186
e 154 187
e 154 199
e 154 200
e 155 160
e 155 161
e 155 165
e 155 175
e 155 179
e 155 186
e 155 192
e 155 199
e 156 167
e 156 176
e 156 177
e 156 192
e 156 196
e 156 199
e 157 166
e 157 195
e 158 159
e 158 161
e 158 172
e 158 177
e 158 181
e 158 196
e 159 163
e 159 172
e 159 186
e 159 191
e 160 161
e 160 172
e 160 199
e 160 200
e 161 164
e 161 173
e 161 179
e 162 166
e 162 170
e 162 173
e 162 186
e 162 188
e 162 197
e 163 164
e 163 166
e 163 169
e 163 200
e 164 173
e 164 185
e 164 194
e 164 195
e 165 166
e 165 168
e 165 170
e 165 172
e 165 179
e 165 188
e 165 198
e 166 169
e 166 185
e 166 193
e 166 199
e 166 200
e 167 198
e 168 171
e 168 179
e 168 185
e 169 177
e 169 197
e 170 172
e 170 190
e 170 198
e 171 173
e 171 181
e 171 186
e 172 176
e 172 181
e 172 192
e 173 190
e 174 183
e 174 199
e 175 194
e 175 198
e 175 199
e 176 177
e 176 179
e 176 191
e 177 179
e 177 182
e 177 185
e 179 180
e 179 192
e 180 181
e 181 185
e 181 187
e 182 185
e 182 187
e 184 199
e 185 196
e 185 197
e 186 187
e 186 188
e 187 188
e 189 192
e 191 196
e 191 199
e 191 200
e 192 195
e 193 194
e 193 195
e 193 198
